p cnf 44 123
a 1 26 0
e 2 3 4 5 6 7 8 9 10 11 12 13 14 15 16 17 18 19 20 21 22 23 24 25 27 28 29 30 31 32 33 34 35 36 37 38 39 40 41 42 43 44 0
-5 3 0
-5 4 0
-3 -4 5 0
6 2 0
6 5 0
-2 -5 -6 0
-7 1 0
-7 -6 0
-1 6 7 0
8 -7 0
8 4 0
7 -4 -8 0
9 7 -10 0
-9 -7 -10 0
9 -7 10 0
-9 7 10 0
8 10 -11 0
-8 -10 -11 0
8 -10 11 0
-8 10 11 0
-12 -6 -13 0
12 6 -13 0
-12 6 13 0
12 -6 13 0
-14 -11 0
-14 -13 0
11 13 14 0
16 7 0
16 -15 0
-7 15 -16 0
17 -18 0
-17 -18 0
-19 -18 0
-19 4 0
18 -4 19 0
-16 19 -20 0
16 -19 -20 0
-16 -19 20 0
16 19 20 0
-22 5 0
-22 1 0
-5 -1 22 0
-23 -21 0
-23 22 0
21 -22 23 0
2 22 -24 0
-2 -22 -24 0
2 -22 24 0
-2 22 24 0
17 -12 -25 0
-17 12 -25 0
17 12 25 0
-17 -12 25 0
26 24 0
26 -25 0
-24 25 -26 0
-27 23 0
-27 -26 0
-23 26 27 0
29 -2 0
29 28 0
2 -28 -29 0
-7 29 -30 0
7 -29 -30 0
-7 -29 30 0
7 29 30 0
31 27 0
31 -30 0
-27 30 -31 0
32 -20 0
32 -31 0
20 31 -32 0
-33 1 0
-33 -15 0
-1 15 33 0
34 -17 0
34 3 0
17 -3 -34 0
35 -33 0
35 -34 0
33 34 -35 0
-36 -1 0
-36 7 0
1 -7 36 0
37 -4 0
37 -36 0
4 36 -37 0
35 37 -38 0
-35 -37 -38 0
35 -37 38 0
-35 37 38 0
-28 18 -39 0
28 -18 -39 0
-28 -18 39 0
28 18 39 0
40 7 0
40 -39 0
-7 39 -40 0
41 40 0
41 28 0
-40 -28 -41 0
-42 -38 0
-42 -41 0
38 41 42 0
43 32 0
43 42 0
-32 -42 -43 0
-14 43 -44 0
14 -43 -44 0
-14 -43 44 0
14 43 44 0
-23 -44 -30 36 -20 10 -32 11 0
36 41 16 26 -1 12 -11 0
17 -1 -4 26 33 0
-8 -29 -3 -25 -5 -9 1 0
-16 -4 41 -30 0
-9 -3 -32 -39 0
18 7 -33 -9 0
-40 1 -31 38 -22 0
-29 -31 18 -32 30 -11 0
-39 -37 -2 0
27 41 12 15 10 0
44 0
